(set-info :smt-lib-version 2.6)
(set-logic QF_S)
(set-info :source |
Generated by: Hung-En Wang, Tzung-Lin Tsai, Chun-Han Lin, Fang Yu, and Jie-Hong R. Jiang
Generated on: 2019-02-28
Generator: Stranger
Application: Security analysis of string manipulating web applications
Target solver: CVC4, Norn, Z3-str2
Publication:
Hung-En Wang, Tzung-Lin Tsai, Chun-Han Lin, Fang Yu, Jie-Hong R. Jiang:
String Analysis via Automata Manipulation with Logic Circuit Representation. CAV (1) 2016: 241-260.
|)
(set-info :license "https://creativecommons.org/licenses/by/4.0/")
(set-info :category "industrial")
(set-info :status unknown)

(declare-fun sigmaStar_0 () String)
(declare-fun literal_1 () String)
(declare-fun x_2 () String)
(declare-fun literal_3 () String)
(declare-fun x_4 () String)
(declare-fun x_5 () String)
(declare-fun literal_6 () String)
(declare-fun x_7 () String)
(assert (= literal_1 "\u{20}\u{20}\u{20}\u{20}\u{3c}\u{73}\u{63}\u{72}\u{69}\u{70}\u{74}\u{20}\u{6c}\u{61}\u{6e}\u{67}\u{75}\u{61}\u{67}\u{65}\u{3d}\u{5c}\u{22}\u{4a}\u{61}\u{76}\u{61}\u{53}\u{63}\u{72}\u{69}\u{70}\u{74}\u{5c}\u{22}\u{20}\u{74}\u{79}\u{70}\u{65}\u{3d}\u{5c}\u{22}\u{74}\u{65}\u{78}\u{74}\u{2f}\u{6a}\u{61}\u{76}\u{61}\u{73}\u{63}\u{72}\u{69}\u{70}\u{74}\u{5c}\u{22}\u{3e}\u{0d}\u{0a}\u{20}\u{20}\u{20}\u{20}\u{20}\u{20}\u{20}\u{20}\u{77}\u{69}\u{6e}\u{64}\u{6f}\u{77}\u{2e}\u{6f}\u{6e}\u{72}\u{65}\u{73}\u{69}\u{7a}\u{65}\u{20}\u{3d}\u{20}\u{66}\u{75}\u{6e}\u{63}\u{74}\u{69}\u{6f}\u{6e}\u{28}\u{29}\u{20}\u{7b}\u{0d}\u{0a}\u{20}\u{20}\u{20}\u{20}\u{20}\u{20}\u{20}\u{20}\u{20}\u{20}\u{20}\u{20}\u{72}\u{65}\u{73}\u{69}\u{7a}\u{65}\u{69}\u{66}\u{72}\u{61}\u{6d}\u{65}\u{28}"))
(assert (= x_2 (str.++ literal_1 sigmaStar_0)))
(assert (= literal_3 "\u{29}\u{3b}\u{0d}\u{0a}\u{20}\u{20}\u{20}\u{20}\u{20}\u{20}\u{20}\u{20}\u{7d}\u{3b}\u{0d}\u{0a}\u{20}\u{20}\u{20}\u{20}\u{20}\u{20}\u{20}\u{20}\u{77}\u{69}\u{6e}\u{64}\u{6f}\u{77}\u{2e}\u{6e}\u{61}\u{6d}\u{65}\u{3d}\u{27}\u{69}\u{6d}\u{73}\u{2d}\u{63}\u{70}\u{2d}\u{70}\u{61}\u{67}\u{65}\u{27}\u{3b}\u{0d}\u{0a}\u{0d}\u{0a}\u{20}\u{20}\u{20}\u{20}\u{20}\u{20}\u{20}\u{20}\u{2f}\u{2f}\u{20}\u{53}\u{65}\u{74}\u{20}\u{49}\u{6e}\u{74}\u{65}\u{72}\u{76}\u{61}\u{6c}\u{20}\u{75}\u{6e}\u{74}\u{69}\u{6c}\u{20}\u{69}\u{6d}\u{73}\u{2d}\u{63}\u{6f}\u{6e}\u{74}\u{65}\u{6e}\u{74}\u{66}\u{72}\u{61}\u{6d}\u{65}\u{20}\u{6f}\u{72}\u{20}\u{69}\u{6d}\u{73}\u{2d}\u{63}\u{6f}\u{6e}\u{74}\u{65}\u{6e}\u{74}\u{66}\u{72}\u{61}\u{6d}\u{65}\u{2d}\u{6e}\u{6f}\u{2d}\u{6e}\u{61}\u{76}\u{20}\u{69}\u{73}\u{20}\u{61}\u{76}\u{61}\u{69}\u{6c}\u{61}\u{62}\u{6c}\u{65}\u{0d}\u{0a}\u{20}\u{20}\u{20}\u{20}\u{20}\u{20}\u{20}\u{20}\u{66}\u{75}\u{6e}\u{63}\u{74}\u{69}\u{6f}\u{6e}\u{20}\u{77}\u{61}\u{69}\u{74}\u{69}\u{6e}\u{67}\u{28}\u{29}\u{20}\u{7b}\u{0d}\u{0a}\u{20}\u{20}\u{20}\u{20}\u{20}\u{20}\u{20}\u{20}\u{20}\u{20}\u{20}\u{20}\u{76}\u{61}\u{72}\u{20}\u{63}\u{66}\u{20}\u{20}\u{20}\u{3d}\u{20}\u{64}\u{6f}\u{63}\u{75}\u{6d}\u{65}\u{6e}\u{74}\u{2e}\u{67}\u{65}\u{74}\u{45}\u{6c}\u{65}\u{6d}\u{65}\u{6e}\u{74}\u{42}\u{79}\u{49}\u{64}\u{28}\u{27}\u{69}\u{6d}\u{73}\u{2d}\u{63}\u{6f}\u{6e}\u{74}\u{65}\u{6e}\u{74}\u{66}\u{72}\u{61}\u{6d}\u{65}\u{27}\u{29}\u{3b}\u{0d}\u{0a}\u{20}\u{20}\u{20}\u{20}\u{20}\u{20}\u{20}\u{20}\u{20}\u{20}\u{20}\u{20}\u{76}\u{61}\u{72}\u{20}\u{63}\u{66}\u{6e}\u{76}\u{20}\u{3d}\u{20}\u{64}\u{6f}\u{63}\u{75}\u{6d}\u{65}\u{6e}\u{74}\u{2e}\u{67}\u{65}\u{74}\u{45}\u{6c}\u{65}\u{6d}\u{65}\u{6e}\u{74}\u{42}\u{79}\u{49}\u{64}\u{28}\u{27}\u{69}\u{6d}\u{73}\u{2d}\u{63}\u{6f}\u{6e}\u{74}\u{65}\u{6e}\u{74}\u{66}\u{72}\u{61}\u{6d}\u{65}\u{2d}\u{6e}\u{6f}\u{2d}\u{6e}\u{61}\u{76}\u{27}\u{29}\u{3b}\u{0d}\u{0a}\u{0d}\u{0a}\u{20}\u{20}\u{20}\u{20}\u{20}\u{20}\u{20}\u{20}\u{20}\u{20}\u{20}\u{20}\u{69}\u{66}\u{20}\u{28}\u{63}\u{66}\u{20}\u{7c}\u{7c}\u{20}\u{63}\u{66}\u{6e}\u{76}\u{29}\u{20}\u{7b}\u{0d}\u{0a}\u{20}\u{20}\u{20}\u{20}\u{20}\u{20}\u{20}\u{20}\u{20}\u{20}\u{20}\u{20}\u{20}\u{20}\u{20}\u{20}\u{72}\u{65}\u{73}\u{69}\u{7a}\u{65}\u{69}\u{66}\u{72}\u{61}\u{6d}\u{65}\u{28}"))
(assert (= x_4 (str.++ x_2 literal_3)))
(assert (= x_5 (str.++ x_4 sigmaStar_0)))
(assert (= literal_6 "\u{29}\u{3b}\u{0d}\u{0a}\u{20}\u{20}\u{20}\u{20}\u{20}\u{20}\u{20}\u{20}\u{20}\u{20}\u{20}\u{20}\u{20}\u{20}\u{20}\u{20}\u{63}\u{6c}\u{65}\u{61}\u{72}\u{49}\u{6e}\u{74}\u{65}\u{72}\u{76}\u{61}\u{6c}\u{28}\u{6f}\u{75}\u{72}\u{49}\u{6e}\u{74}\u{65}\u{72}\u{76}\u{61}\u{6c}\u{29}\u{3b}\u{0d}\u{0a}\u{20}\u{20}\u{20}\u{20}\u{20}\u{20}\u{20}\u{20}\u{20}\u{20}\u{20}\u{20}\u{20}\u{20}\u{20}\u{20}\u{72}\u{65}\u{74}\u{75}\u{72}\u{6e}\u{20}\u{74}\u{72}\u{75}\u{65}\u{3b}\u{0d}\u{0a}\u{20}\u{20}\u{20}\u{20}\u{20}\u{20}\u{20}\u{20}\u{20}\u{20}\u{20}\u{20}\u{7d}\u{0d}\u{0a}\u{20}\u{20}\u{20}\u{20}\u{20}\u{20}\u{20}\u{20}\u{20}\u{20}\u{20}\u{20}\u{72}\u{65}\u{74}\u{75}\u{72}\u{6e}\u{20}\u{66}\u{61}\u{6c}\u{73}\u{65}\u{3b}\u{0d}\u{0a}\u{20}\u{20}\u{20}\u{20}\u{20}\u{20}\u{20}\u{20}\u{7d}\u{0d}\u{0a}\u{0d}\u{0a}\u{20}\u{20}\u{20}\u{20}\u{20}\u{20}\u{20}\u{20}\u{76}\u{61}\u{72}\u{20}\u{6f}\u{75}\u{72}\u{49}\u{6e}\u{74}\u{65}\u{72}\u{76}\u{61}\u{6c}\u{20}\u{3d}\u{20}\u{73}\u{65}\u{74}\u{49}\u{6e}\u{74}\u{65}\u{72}\u{76}\u{61}\u{6c}\u{28}\u{27}\u{77}\u{61}\u{69}\u{74}\u{69}\u{6e}\u{67}\u{28}\u{29}\u{27}\u{2c}\u{20}\u{31}\u{30}\u{30}\u{29}\u{3b}\u{0d}\u{0a}\u{20}\u{20}\u{20}\u{20}\u{3c}\u{2f}\u{73}\u{63}\u{72}\u{69}\u{70}\u{74}\u{3e}\u{5c}\u{6e}"))
(assert (= x_7 (str.++ x_5 literal_6)))
(assert (str.in_re x_7 (re.++ (re.* re.allchar) (re.++ (str.to_re "\u{5c}\u{3c}\u{53}\u{43}\u{52}\u{49}\u{50}\u{54}") (re.* re.allchar)))))
(check-sat)
(exit)
